c SAT problem
p wcnf 593 1504
1 -60 -3150 0
1 75 76 0
1 -90 3105 0
1 -90 3075 0
1 -90 -3090 0
1 -90 3060 0
1 90 -3135 0
1 105 -3105 0
1 105 -3075 0
1 -105 3165 0
1 3120 135 0
1 -3120 -75 0
1 -3120 -150 0
1 3120 120 0
1 -3120 90 0
1 -3135 -3136 0
1 -3135 150 0
1 -3135 120 0
1 3150 181 0
1 3150 -121 0
1 -3165 -90 0
1 -120 -3060 0
1 135 3105 0
1 135 3075 0
1 -135 -120 0
1 150 3075 0
1 -150 -3120 0
1 -150 3030 0
1 150 -151 0
1 165 -3105 0
1 -165 3045 0
1 165 -3120 0
1 165 3030 0
1 -3060 225 0
1 3060 180 0
1 -3075 -195 0
1 -3075 -150 0
1 3075 255 0
1 -3090 120 0
1 -3090 -255 0
1 -3105 135 0
1 -3105 120 0
1 -180 3045 0
1 -180 181 0
1 195 196 0
1 -195 -3015 0
1 -210 3075 0
1 210 3015 0
1 210 211 0
1 -210 -3060 0
1 225 -226 0
1 225 3030 0
1 3015 -3016 0
1 3015 300 0
1 -3015 -3000 0
1 3015 315 0
1 3030 -3045 0
1 -3030 210 0
1 3030 -3031 0
1 3045 180 0
1 -3045 150 0
1 61 3315 0
1 61 62 0
1 76 -3300 0
1 -91 -3300 0
1 91 106 0
1 -91 3255 0
1 91 92 0
1 106 3330 0
1 106 -3315 0
1 -106 3285 0
1 3315 76 0
1 3315 3316 0
1 3315 -121 0
1 3330 -122 0
1 3345 -137 0
1 3345 3346 0
1 -3345 61 0
1 -121 136 0
1 121 3150 0
1 -121 122 0
1 136 -3240 0
1 136 3150 0
1 151 166 0
1 151 3210 0
1 151 -3180 0
1 -151 -152 0
1 166 3255 0
1 166 -167 0
1 -166 -3240 0
1 -3240 -226 0
1 -3240 196 0
1 3240 136 0
1 3240 -3241 0
1 -3240 -241 0
1 -3255 166 0
1 3255 3240 0
1 3270 -227 0
1 -3270 91 0
1 -3285 197 0
1 -3285 166 0
1 -181 3105 0
1 -181 -196 0
1 181 -3240 0
1 181 3150 0
1 181 -180 0
1 -181 3195 0
1 181 -3135 0
1 -196 -3120 0
1 211 -3240 0
1 -211 3090 0
1 211 210 0
1 211 -3225 0
1 -211 -3166 0
1 226 3210 0
1 226 -3255 0
1 226 3225 0
1 -226 -3195 0
1 3180 -196 0
1 -3180 -151 0
1 -3180 -255 0
1 -3195 3180 0
1 3195 -181 0
1 3195 -255 0
1 -3210 166 0
1 3210 -301 0
1 -3210 241 0
1 3225 256 0
1 -3225 -301 0
1 3225 271 0
1 -3225 211 0
1 -3225 -286 0
1 -240 -3045 0
1 -240 3195 0
1 -240 -3166 0
1 255 -3121 0
1 255 3060 0
1 255 3030 0
1 -255 -3195 0
1 255 -3166 0
1 -270 -3106 0
1 -270 -3045 0
1 -270 -3180 0
1 -285 3106 0
1 -285 -3045 0
1 285 3195 0
1 3121 226 0
1 -3121 -330 0
1 -3136 361 0
1 -3136 -300 0
1 3136 -240 0
1 3136 -345 0
1 -3151 361 0
1 3151 376 0
1 -3151 3166 0
1 3151 -255 0
1 3166 -211 0
1 3166 285 0
1 300 -3045 0
1 -300 -3015 0
1 -300 -3061 0
1 -300 -3000 0
1 300 315 0
1 315 -3136 0
1 315 -3106 0
1 315 3045 0
1 -315 -3015 0
1 330 -3016 0
1 -330 3031 0
1 345 -3001 0
1 -3061 -270 0
1 3061 -435 0
1 3061 -405 0
1 -3061 -3062 0
1 -3076 -3077 0
1 3076 -390 0
1 3076 -360 0
1 3076 -435 0
1 3076 405 0
1 3076 345 0
1 3091 -3090 0
1 3091 -315 0
1 3106 -420 0
1 -3106 -435 0
1 -3106 3091 0
1 360 3046 0
1 360 3016 0
1 -360 -375 0
1 -375 -3016 0
1 -375 3001 0
1 -390 3046 0
1 405 3046 0
1 405 3061 0
1 3001 -360 0
1 3001 330 0
1 -3016 -330 0
1 3016 -375 0
1 -3031 480 0
1 -3031 -390 0
1 3031 405 0
1 3031 3030 0
1 3046 -3047 0
1 62 3495 0
1 -92 91 0
1 92 -93 0
1 107 -3495 0
1 -107 3450 0
1 -3480 -107 0
1 -3480 152 0
1 -3480 -3481 0
1 -3495 -3480 0
1 3510 168 0
1 3510 138 0
1 -3510 77 0
1 3510 -153 0
1 3525 168 0
1 3525 153 0
1 -3525 62 0
1 122 3420 0
1 152 3330 0
1 152 -153 0
1 167 3495 0
1 -3420 212 0
1 -3420 92 0
1 3435 167 0
1 3435 -212 0
1 -3435 182 0
1 -3435 152 0
1 -3450 -92 0
1 -3465 137 0
1 -3465 -3450 0
1 3465 -242 0
1 -3465 213 0
1 3465 -183 0
1 -3465 92 0
1 182 197 0
1 -182 3435 0
1 182 3345 0
1 182 -3315 0
1 182 181 0
1 -182 3420 0
1 212 3331 0
1 -212 3405 0
1 212 -3316 0
1 212 -213 0
1 -227 -212 0
1 3360 -167 0
1 3360 -271 0
1 3360 -182 0
1 -3375 -302 0
1 -3375 286 0
1 -3390 3405 0
1 -3390 272 0
1 -3390 182 0
1 -3390 -152 0
1 3390 -317 0
1 -3405 3406 0
1 3405 317 0
1 241 -256 0
1 256 3301 0
1 256 3375 0
1 -256 3225 0
1 -271 3301 0
1 271 3241 0
1 -271 272 0
1 -271 3225 0
1 286 -3271 0
1 286 3256 0
1 286 -3225 0
1 286 287 0
1 -3301 -227 0
1 3301 3300 0
1 -3301 -3302 0
1 -3301 -301 0
1 -3301 -212 0
1 -3301 -3316 0
1 -3301 -286 0
1 3316 301 0
1 -3316 316 0
1 -3316 -286 0
1 3331 -377 0
1 -3346 3331 0
1 -3346 -362 0
1 -3346 -3347 0
1 3346 -377 0
1 -3346 -347 0
1 3346 317 0
1 -301 -3271 0
1 301 3286 0
1 301 -3256 0
1 -301 316 0
1 -316 3180 0
1 -316 301 0
1 -316 3316 0
1 346 -3301 0
1 -346 -3316 0
1 3241 -301 0
1 -3256 361 0
1 3286 -3285 0
1 -3286 407 0
1 -361 -3256 0
1 361 -3181 0
1 376 3136 0
1 -376 3106 0
1 376 -3151 0
1 376 377 0
1 376 3226 0
1 -391 -3137 0
1 391 -390 0
1 -391 -3241 0
1 -391 -3181 0
1 -391 3256 0
1 -406 -3137 0
1 406 391 0
1 406 3241 0
1 406 3152 0
1 -406 -407 0
1 -406 -3196 0
1 -3181 -435 0
1 3196 361 0
1 -3211 361 0
1 3211 466 0
1 -3211 436 0
1 3211 406 0
1 3226 -481 0
1 -3226 -451 0
1 -3226 361 0
1 -3226 3211 0
1 420 3122 0
1 435 -3137 0
1 -435 -3076 0
1 -435 3181 0
1 450 -3122 0
1 450 -3092 0
1 -465 -450 0
1 465 -3077 0
1 -465 -3181 0
1 -465 -3062 0
1 3122 -480 0
1 -3122 -406 0
1 3137 391 0
1 -3137 465 0
1 -3167 -420 0
1 -3167 465 0
1 -3167 -3152 0
1 480 -3092 0
1 -480 3062 0
1 -495 -3062 0
1 495 3031 0
1 -510 -3017 0
1 525 -3077 0
1 -525 3092 0
1 525 3032 0
1 -3062 -615 0
1 3062 555 0
1 3062 -495 0
1 -3062 -465 0
1 -3062 540 0
1 -3062 510 0
1 -3077 480 0
1 3077 585 0
1 -3077 570 0
1 -3092 3091 0
1 3107 -525 0
1 -3107 -541 0
1 -540 -3002 0
1 555 3077 0
1 570 -585 0
1 -585 3032 0
1 585 -570 0
1 3002 -525 0
1 -3017 -525 0
1 -3032 -3031 0
1 3032 -510 0
1 -3047 -630 0
1 -93 3630 0
1 93 94 0
1 -108 -3690 0
1 108 -107 0
1 108 -3675 0
1 3660 -153 0
1 -3660 -123 0
1 -3675 -168 0
1 -3675 153 0
1 3675 123 0
1 3675 93 0
1 3690 3705 0
1 -3705 169 0
1 -3705 139 0
1 3705 3706 0
1 -3705 -154 0
1 123 -3525 0
1 -123 3645 0
1 -138 -3525 0
1 138 3600 0
1 -153 -3600 0
1 153 3510 0
1 -168 3585 0
1 3600 258 0
1 -3600 -198 0
1 -3600 -3601 0
1 3600 -183 0
1 3600 123 0
1 -3600 93 0
1 3615 -258 0
1 3615 -108 0
1 -3615 123 0
1 -3630 -123 0
1 -3645 138 0
1 -3645 108 0
1 3645 153 0
1 -3645 -123 0
1 -183 -3510 0
1 -198 3570 0
1 -198 -183 0
1 -213 3585 0
1 -213 -3540 0
1 -228 -3600 0
1 -228 -3570 0
1 -228 -3615 0
1 3540 3541 0
1 -3540 153 0
1 -3555 -257 0
1 -3570 -258 0
1 3570 -168 0
1 242 -3465 0
1 -242 -3405 0
1 -242 241 0
1 -257 3435 0
1 257 242 0
1 -257 3420 0
1 257 -3390 0
1 272 3555 0
1 272 3526 0
1 272 -3466 0
1 -272 3511 0
1 272 3481 0
1 -272 -3451 0
1 -272 3390 0
1 -287 3555 0
1 -287 -3526 0
1 -287 3466 0
1 -287 3436 0
1 287 3390 0
1 -3481 228 0
1 -3481 363 0
1 -3481 -332 0
1 3481 -3480 0
1 3481 347 0
1 3496 -272 0
1 3496 -242 0
1 -3511 257 0
1 -3511 318 0
1 3526 -363 0
1 3526 -318 0
1 302 3405 0
1 -302 -317 0
1 -302 3390 0
1 317 -3466 0
1 332 -3466 0
1 -332 -3451 0
1 347 3361 0
1 -347 -3331 0
1 -3436 -392 0
1 3436 -3435 0
1 -3436 -272 0
1 3436 407 0
1 3436 377 0
1 -3436 -3421 0
1 -3436 -287 0
1 -3451 -3452 0
1 3451 -287 0
1 3466 -332 0
1 -3466 -437 0
1 -3466 317 0
1 362 -3436 0
1 -362 3376 0
1 362 -3421 0
1 377 3316 0
1 377 -376 0
1 392 3361 0
1 -392 -3302 0
1 392 391 0
1 392 -3376 0
1 -407 -3406 0
1 -407 3286 0
1 3361 3360 0
1 -3391 -422 0
1 -3391 332 0
1 -3391 497 0
1 -3391 -467 0
1 3391 -347 0
1 -3406 362 0
1 -3406 -332 0
1 3406 -3407 0
1 421 3332 0
1 -421 3271 0
1 421 -3211 0
1 421 436 0
1 421 -3226 0
1 436 3332 0
1 -436 -3302 0
1 -436 -3347 0
1 -451 3361 0
1 451 450 0
1 -451 -3272 0
1 -451 -3242 0
1 451 -3211 0
1 -451 466 0
1 451 -3226 0
1 3302 -3317 0
1 3302 511 0
1 3317 481 0
1 -3317 -451 0
1 -3317 421 0
1 3317 -496 0
1 3317 -407 0
1 3332 482 0
1 3332 527 0
1 -3332 -497 0
1 -3347 -436 0
1 481 -3211 0
1 -496 481 0
1 -496 -3272 0
1 496 3211 0
1 -526 -525 0
1 -526 -527 0
1 -526 3317 0
1 526 -3287 0
1 526 -3167 0
1 -3242 -586 0
1 3242 -3243 0
1 -3242 601 0
1 3257 -451 0
1 3257 -3258 0
1 -3272 -587 0
1 3272 3287 0
1 -3272 -511 0
1 3287 -451 0
1 -3287 557 0
1 -541 556 0
1 541 3197 0
1 -556 3137 0
1 556 -557 0
1 -556 -3197 0
1 -571 -3153 0
1 -571 -3123 0
1 -586 -3107 0
1 -586 585 0
1 586 3257 0
1 -3182 645 0
1 -3182 586 0
1 -3182 -556 0
1 3182 3183 0
1 3197 615 0
1 3197 -600 0
1 -3197 -571 0
1 -3197 3196 0
1 -3197 541 0
1 3212 646 0
1 3212 616 0
1 3212 -661 0
1 3212 -511 0
1 3227 -3212 0
1 3227 -571 0
1 3227 -3228 0
1 600 3138 0
1 -600 -3123 0
1 -600 -3092 0
1 -630 -3047 0
1 630 -3197 0
1 -645 3078 0
1 645 3153 0
1 -3123 690 0
1 3138 -736 0
1 3138 675 0
1 3138 645 0
1 3153 -645 0
1 -3153 721 0
1 -3168 586 0
1 3168 -600 0
1 -3168 -571 0
1 -660 675 0
1 -660 661 0
1 675 3108 0
1 -675 -3047 0
1 675 -3063 0
1 675 3032 0
1 -3063 -720 0
1 -3063 -3062 0
1 -3078 630 0
1 -3093 3108 0
1 3093 -690 0
1 3093 -3092 0
1 -3093 -3094 0
1 -3093 795 0
1 -3108 -705 0
1 3108 3107 0
1 -3108 -645 0
1 3108 3109 0
1 -3108 -660 0
1 3108 630 0
1 -3108 795 0
1 720 -3078 0
1 -720 3018 0
1 750 3033 0
1 3003 -855 0
1 -3018 -720 0
1 -3018 690 0
1 -3018 735 0
1 3033 810 0
1 3048 705 0
1 -3048 735 0
1 64 -3885 0
1 -64 -63 0
1 -94 -3840 0
1 94 -3795 0
1 -109 -3885 0
1 -109 3795 0
1 -3840 -79 0
1 3840 94 0
1 3855 -139 0
1 -3855 -3856 0
1 3870 -3871 0
1 -3885 -64 0
1 -3885 -94 0
1 -124 -139 0
1 -124 123 0
1 -139 3840 0
1 139 3855 0
1 154 3840 0
1 -169 -3840 0
1 -169 3780 0
1 -169 3765 0
1 169 -3735 0
1 -3780 -214 0
1 -3795 -124 0
1 -3810 3811 0
1 3810 -139 0
1 -3810 -154 0
1 -3825 3810 0
1 -3825 169 0
1 3825 244 0
1 184 3780 0
1 -184 199 0
1 -184 3720 0
1 -184 -3735 0
1 -184 -3630 0
1 -184 -3705 0
1 -184 3675 0
1 -199 -3750 0
1 -199 3660 0
1 199 -3765 0
1 -199 3675 0
1 -214 3735 0
1 214 3630 0
1 -214 -213 0
1 214 -3765 0
1 -229 -3780 0
1 -229 3691 0
1 3720 -3735 0
1 3720 184 0
1 3735 258 0
1 3735 3720 0
1 -3735 -319 0
1 -3750 -289 0
1 3750 259 0
1 -3765 -289 0
1 -243 3691 0
1 -243 3630 0
1 -243 242 0
1 -243 -3676 0
1 -258 -259 0
1 -258 3630 0
1 258 -3570 0
1 -258 243 0
1 -273 -3585 0
1 273 -3631 0
1 273 -274 0
1 -288 3570 0
1 -3661 243 0
1 3661 348 0
1 -3676 229 0
1 3676 -273 0
1 -3676 214 0
1 3676 -318 0
1 -3691 -243 0
1 -3706 3707 0
1 -3706 -304 0
1 -3706 379 0
1 303 -3555 0
1 303 3631 0
1 303 304 0
1 318 3616 0
1 -318 -317 0
1 -318 3646 0
1 -333 3586 0
1 333 3511 0
1 -348 -3616 0
1 348 -3556 0
1 -348 -3571 0
1 -348 -347 0
1 -348 3646 0
1 3601 303 0
1 -3601 273 0
1 3601 3602 0
1 3601 438 0
1 -3616 -288 0
1 3616 423 0
1 3616 273 0
1 -3646 -348 0
1 -3646 3647 0
1 363 -3556 0
1 363 362 0
1 -378 -3616 0
1 378 3601 0
1 378 377 0
1 393 394 0
1 -393 -3451 0
1 -408 3512 0
1 408 3482 0
1 -3541 -333 0
1 -3541 437 0
1 3556 3555 0
1 -3556 393 0
1 3571 -378 0
1 422 -3406 0
1 -452 3527 0
1 452 3497 0
1 -452 3467 0
1 -452 -3391 0
1 -467 452 0
1 467 3467 0
1 467 466 0
1 467 -3452 0
1 -3482 -452 0
1 -3482 437 0
1 3482 -408 0
1 -3497 -393 0
1 -3497 527 0
1 -3512 -467 0
1 -3512 3511 0
1 -3527 452 0
1 -3527 -422 0
1 3527 3526 0
1 3527 558 0
1 482 -483 0
1 -482 3497 0
1 482 3422 0
1 -497 482 0
1 -497 -3497 0
1 497 3437 0
1 497 3406 0
1 497 -3452 0
1 -512 513 0
1 -512 3362 0
1 512 -527 0
1 -527 -3332 0
1 -527 -526 0
1 527 3482 0
1 -3422 -512 0
1 -3422 -617 0
1 3422 587 0
1 3422 3437 0
1 3437 587 0
1 3437 497 0
1 -3437 -572 0
1 3437 3422 0
1 -3452 617 0
1 3452 -588 0
1 -3467 512 0
1 3467 -3468 0
1 -3467 497 0
1 -3467 3452 0
1 -557 -3392 0
1 557 3362 0
1 -557 3332 0
1 -557 -3272 0
1 -557 556 0
1 -572 3392 0
1 -572 -3333 0
1 572 571 0
1 572 -573 0
1 587 3392 0
1 -587 -3362 0
1 -587 3303 0
1 3362 3361 0
1 -3362 527 0
1 -3362 601 0
1 -3377 677 0
1 3377 3378 0
1 -3377 -631 0
1 -3392 677 0
1 -3392 647 0
1 3392 617 0
1 -3392 3391 0
1 3407 -647 0
1 3407 -602 0
1 601 3303 0
1 601 3242 0
1 -601 3257 0
1 616 -3257 0
1 616 -3333 0
1 616 615 0
1 616 -3212 0
1 616 3318 0
1 631 3303 0
1 646 647 0
1 -646 3273 0
1 -3303 -676 0
1 3303 -3304 0
1 -3303 601 0
1 -3303 -572 0
1 -3318 706 0
1 -3318 -3319 0
1 3333 707 0
1 3333 -662 0
1 3348 707 0
1 3348 -646 0
1 3348 3333 0
1 3348 -587 0
1 3348 572 0
1 661 3273 0
1 661 -3243 0
1 661 3318 0
1 661 3258 0
1 676 675 0
1 -676 3318 0
1 -691 -706 0
1 -691 -3273 0
1 -691 -3198 0
1 706 -3168 0
1 706 -3243 0
1 -706 -3213 0
1 -706 3183 0
1 706 3228 0
1 -3243 -706 0
1 -3243 -781 0
1 3243 -796 0
1 3243 -766 0
1 -3258 -3243 0
1 3258 691 0
1 3258 3257 0
1 3273 -3274 0
1 -3273 781 0
1 -3288 706 0
1 3288 676 0
1 3288 3273 0
1 -3288 781 0
1 -3288 796 0
1 -736 -3168 0
1 736 3138 0
1 736 -3243 0
1 736 3093 0
1 -736 3258 0
1 751 -3169 0
1 -751 3093 0
1 751 -3228 0
1 -751 -766 0
1 -766 -3108 0
1 -766 -3213 0
1 -766 -3198 0
1 -3183 706 0
1 3183 -721 0
1 3183 3198 0
1 3198 841 0
1 -3198 3197 0
1 -3213 -3212 0
1 3213 751 0
1 -3213 796 0
1 780 -3108 0
1 -780 -3078 0
1 -795 -3048 0
1 795 -3063 0
1 -825 -3124 0
1 825 -3033 0
1 -825 826 0
1 -3124 -916 0
1 -3124 795 0
1 -3124 766 0
1 3139 -3138 0
1 3139 -901 0
1 -3139 -780 0
1 3139 -916 0
1 3154 -3169 0
1 -3154 916 0
1 3154 856 0
1 3154 -795 0
1 -3169 871 0
1 -3169 -3154 0
1 3169 916 0
1 -3169 795 0
1 840 -3109 0
1 840 -3079 0
1 -855 -840 0
1 870 -3079 0
1 885 -3049 0
1 -3079 825 0
1 3094 3109 0
1 -3094 840 0
1 -3094 -825 0
1 -900 -3079 0
1 -915 3079 0
1 -915 3004 0
1 -930 931 0
1 930 -3049 0
1 930 945 0
1 945 3019 0
1 3004 -900 0
1 3019 -3004 0
1 3034 -3049 0
1 3034 -945 0
1 -3049 -915 0
1 -3049 885 0
1 244 -3795 0
1 -259 3886 0
1 259 3856 0
1 259 -3825 0
1 -274 3811 0
1 274 -3796 0
1 289 3841 0
1 -289 3811 0
1 289 3886 0
1 -289 -3796 0
1 -3841 349 0
1 3856 -289 0
1 3856 3857 0
1 -3886 289 0
1 -3886 3871 0
1 304 -3811 0
1 304 3691 0
1 304 -3765 0
1 304 -3735 0
1 319 -3811 0
1 -319 -3765 0
1 334 -3721 0
1 -334 3691 0
1 -334 333 0
1 334 -3826 0
1 334 -3766 0
1 -334 -3706 0
1 334 349 0
1 -349 3796 0
1 349 3766 0
1 3781 -289 0
1 -3781 -439 0
1 -3781 -379 0
1 -3781 -319 0
1 3796 -274 0
1 3796 -3795 0
1 3796 -379 0
1 -3811 -349 0
1 -3826 -3811 0
1 -3826 -334 0
1 -364 3721 0
1 -364 -363 0
1 -364 3661 0
1 364 -3766 0
1 379 3751 0
1 379 364 0
1 379 -3706 0
1 -379 3736 0
1 -379 -3676 0
1 394 -3751 0
1 -409 394 0
1 409 -3631 0
1 -3721 -3722 0
1 3721 -3736 0
1 3721 409 0
1 -3721 -349 0
1 3736 -394 0
1 -3751 3750 0
1 3766 -454 0
1 -3766 499 0
1 -3766 349 0
1 -423 3721 0
1 423 -3707 0
1 438 -3662 0
1 -438 -3736 0
1 453 -3571 0
1 468 -3571 0
1 -468 -3736 0
1 -468 -3677 0
1 468 -3647 0
1 3662 -513 0
1 3662 -423 0
1 3662 3661 0
1 -3662 -528 0
1 3692 3691 0
1 3692 409 0
1 -3707 3692 0
1 3707 -559 0
1 483 -3662 0
1 -483 -3647 0
1 -513 3617 0
1 513 514 0
1 -513 3587 0
1 513 3527 0
1 -513 -3542 0
1 528 3542 0
1 -528 3677 0
1 3602 3617 0
1 3602 618 0
1 3602 588 0
1 -3617 513 0
1 3632 -528 0
1 3632 -468 0
1 -3632 3647 0
1 3647 618 0
1 -3647 574 0
1 543 -3467 0
1 -543 -3572 0
1 -558 -3617 0
1 -558 3557 0
1 558 3467 0
1 558 543 0
1 -573 -3498 0
1 -573 3542 0
1 573 -3483 0
1 573 3452 0
1 588 3542 0
1 588 -3483 0
1 3542 513 0
1 3542 -632 0
1 -3557 602 0
1 -3557 -543 0
1 -3572 633 0
1 -3572 603 0
1 3587 3588 0
1 -3587 -648 0
1 -3587 618 0
1 617 -3498 0
1 -632 3392 0
1 632 3557 0
1 632 3513 0
1 -647 -3498 0
1 3483 647 0
1 3483 3484 0
1 3483 -573 0
1 3498 602 0
1 3498 -3483 0
1 3513 -588 0
1 3513 3514 0
1 -3513 -573 0
1 -3528 3527 0
1 -3528 723 0
1 -3528 632 0
1 662 -3498 0
1 -662 -3438 0
1 -677 678 0
1 -677 -662 0
1 -677 -3483 0
1 -692 3363 0
1 692 -3408 0
1 -692 -693 0
1 -692 3423 0
1 707 -3408 0
1 -707 3423 0
1 3423 677 0
1 3438 737 0
1 -3438 677 0
1 -3438 -752 0
1 3438 -797 0
1 3453 -768 0
1 3453 -782 0
1 3453 -753 0
1 3453 -692 0
1 3453 3452 0
1 3468 677 0
1 3468 3453 0
1 722 -737 0
1 -722 3363 0
1 722 723 0
1 737 -3273 0
1 737 -3318 0
1 -737 3288 0
1 -752 -751 0
1 -767 -768 0
1 767 -3334 0
1 767 -752 0
1 767 -3378 0
1 767 -3288 0
1 -3363 811 0
1 3363 752 0
1 3378 -737 0
1 -3378 -842 0
1 3378 692 0
1 3378 826 0
1 -3393 752 0
1 3393 722 0
1 3393 -827 0
1 3408 -3407 0
1 3408 -692 0
1 -3408 -857 0
1 781 780 0
1 781 -3258 0
1 -796 -3334 0
1 796 -781 0
1 -796 -3378 0
1 796 -795 0
1 796 -797 0
1 811 3274 0
1 -811 -3289 0
1 -826 3378 0
1 -826 -3319 0
1 3304 3303 0
1 3304 -811 0
1 -3304 -781 0
1 -3304 917 0
1 3304 3319 0
1 -3304 856 0
1 -3304 -796 0
1 3319 -781 0
1 -3319 3318 0
1 3319 -856 0
1 -3334 917 0
1 3349 -811 0
1 -3349 752 0
1 -3349 -917 0
1 841 3169 0
1 -841 -3274 0
1 -841 -3319 0
1 -856 -3183 0
1 856 3154 0
1 871 3184 0
1 -871 886 0
1 871 -3259 0
1 871 -3199 0
1 886 -3274 0
1 886 -3154 0
1 -886 -3259 0
1 3244 -811 0
1 -3244 -3243 0
1 -3244 856 0
1 -3259 901 0
1 -3259 -3244 0
1 -3259 -946 0
1 3259 -856 0
1 -3259 -826 0
1 -3274 -932 0
1 -3274 811 0
1 -3274 -826 0
1 3289 -871 0
1 3289 -811 0
1 3289 917 0
1 3289 -856 0
1 -3289 -826 0
1 901 3154 0
1 -901 -916 0
1 -901 -3259 0
1 916 3139 0
1 916 3124 0
1 -931 3094 0
1 946 945 0
1 946 3259 0
1 -3184 -931 0
1 3184 3199 0
1 3229 946 0
1 424 3842 0
1 -424 -423 0
1 424 -3826 0
1 -424 3766 0
1 -424 439 0
1 439 -3842 0
1 439 -424 0
1 -439 -438 0
1 -454 -3872 0
1 -454 3842 0
1 -454 3857 0
1 469 3872 0
1 469 3766 0
1 -3842 514 0
1 -3857 -454 0
1 3857 529 0
1 -3857 -469 0
1 -3857 -439 0
1 3872 -3887 0
1 -3887 -3888 0
1 -484 3721 0
1 484 -3766 0
1 -499 -3857 0
1 499 498 0
1 499 -3766 0
1 514 -3842 0
1 514 3752 0
1 514 -3692 0
1 -514 -3857 0
1 529 -514 0
1 529 -3782 0
1 529 -3827 0
1 3782 -544 0
1 -3797 -3782 0
1 -3797 -3796 0
1 3797 3798 0
1 -3812 514 0
1 3812 -619 0
1 -544 3752 0
1 -544 -3692 0
1 544 -3662 0
1 -544 559 0
1 544 3707 0
1 -559 3752 0
1 559 -3722 0
1 559 3662 0
1 -559 -3737 0
1 -574 3782 0
1 -574 3752 0
1 574 3693 0
1 574 3797 0
1 -589 3782 0
1 589 3678 0
1 3722 544 0
1 3722 648 0
1 3722 -3723 0
1 3722 -664 0
1 3722 -603 0
1 -3737 589 0
1 -3737 529 0
1 -3737 633 0
1 -3752 -589 0
1 -3767 544 0
1 -3767 604 0
1 603 -618 0
1 603 3693 0
1 -603 3602 0
1 603 604 0
1 618 3587 0
1 -618 -3632 0
1 618 -3737 0
1 -618 603 0
1 618 3647 0
1 633 3722 0
1 633 -3633 0
1 648 -3648 0
1 -648 -3587 0
1 648 -3693 0
1 3663 603 0
1 3678 -618 0
1 -3678 -3663 0
1 3678 3677 0
1 -3678 574 0
1 -3693 -739 0
1 -3693 3692 0
1 3708 648 0
1 -3708 -3707 0
1 3708 603 0
1 663 3648 0
1 -663 -662 0
1 -663 -3513 0
1 -678 3648 0
1 -678 -677 0
1 678 3557 0
1 -678 3542 0
1 -693 3618 0
1 -693 3588 0
1 -693 3633 0
1 693 -692 0
1 693 694 0
1 -708 -3633 0
1 3603 3618 0
1 -3603 648 0
1 -3603 753 0
1 3618 783 0
1 3618 -753 0
1 -3618 3603 0
1 -3618 798 0
1 3633 -3648 0
1 3633 -769 0
1 -3633 -739 0
1 3633 -708 0
1 3633 678 0
1 3633 -633 0
1 -3648 708 0
1 -3648 648 0
1 -3648 783 0
1 -3648 724 0
1 -3648 633 0
1 738 3618 0
1 738 739 0
1 -738 -3558 0
1 738 723 0
1 -753 3529 0
1 753 -754 0
1 768 -753 0
1 768 3603 0
1 768 -3514 0
1 3543 -3558 0
1 -3543 858 0
1 3543 797 0
1 3558 -3559 0
1 3573 813 0
1 -3588 -768 0
1 -3588 738 0
1 -3588 858 0
1 -3588 828 0
1 782 3499 0
1 782 -3484 0
1 797 3558 0
1 -797 3484 0
1 797 3453 0
1 812 3469 0
1 827 -812 0
1 -827 3439 0
1 827 3543 0
1 3484 842 0
1 3484 -827 0
1 -3499 3498 0
1 3499 -782 0
1 3499 -857 0
1 3499 -827 0
1 3514 -3529 0
1 3514 782 0
1 -3514 -888 0
1 -3529 -903 0
1 -3529 -3528 0
1 -3529 827 0
1 842 -3393 0
1 -842 -3363 0
1 -842 -3378 0
1 -857 -3484 0
1 -857 -3454 0
1 872 3394 0
1 872 3499 0
1 872 3409 0
1 872 3454 0
1 -887 3499 0
1 -887 -3439 0
1 3424 842 0
1 -3454 933 0
1 3454 842 0
1 -3469 -842 0
1 902 -3439 0
1 917 -3394 0
1 917 -3334 0
1 917 3274 0
1 917 -3409 0
1 -917 -3379 0
1 -932 -3379 0
1 -947 3424 0
1 947 -3274 0
1 947 3439 0
1 947 -946 0
1 3364 -3363 0
1 3394 3393 0
1 3394 947 0
1 -3394 917 0
1 3409 -3394 0
1 -3409 917 0
1 -604 3812 0
1 -619 -3752 0
1 -619 604 0
1 -649 648 0
1 649 3798 0
1 3843 -3844 0
1 3843 649 0
1 -3843 694 0
1 -3873 -634 0
1 3888 -3873 0
1 3888 -634 0
1 664 3767 0
1 -664 3783 0
1 -679 3767 0
1 694 -3693 0
1 694 3858 0
1 -694 -3828 0
1 709 -3843 0
1 709 3858 0
1 3783 769 0
1 -3783 -3782 0
1 3783 -634 0
1 3798 -649 0
1 -3798 784 0
1 -3798 3799 0
1 3798 634 0
1 -3813 -3814 0
1 -3813 694 0
1 3813 799 0
1 3828 694 0
1 -3828 -664 0
1 3828 -799 0
1 739 3648 0
1 739 3768 0
1 -739 -3738 0
1 754 -3648 0
1 -754 -3723 0
1 754 3694 0
1 754 -3633 0
1 769 3648 0
1 769 -754 0
1 769 3738 0
1 -3723 694 0
1 3738 -769 0
1 -3738 -724 0
1 3738 3737 0
1 -3753 -3752 0
1 -3753 -3754 0
1 3768 -769 0
1 -3768 709 0
1 3768 814 0
1 -3768 -784 0
1 783 -3648 0
1 783 -3588 0
1 -783 -3603 0
1 783 -3679 0
1 798 3633 0
1 -798 -3738 0
1 -813 3694 0
1 -813 3604 0
1 828 -3709 0
1 -828 -3664 0
1 -828 -3604 0
1 828 3573 0
1 -3664 -843 0
1 3664 3663 0
1 3664 -919 0
1 3694 769 0
1 3694 -904 0
1 -3694 -874 0
1 3694 -3693 0
1 3694 754 0
1 3694 -859 0
1 -843 3588 0
1 843 -3573 0
1 -843 3543 0
1 -843 858 0
1 -858 -3558 0
1 873 -3544 0
1 -873 888 0
1 -888 -3619 0
1 888 887 0
1 -3619 -888 0
1 3634 934 0
1 3634 -828 0
1 -3649 -949 0
1 903 902 0
1 903 3559 0
1 -903 904 0
1 903 -3484 0
1 918 -3469 0
1 918 -917 0
1 918 919 0
1 -918 -3544 0
1 918 -3454 0
1 933 -3619 0
1 -933 -3544 0
1 -948 3559 0
1 -948 947 0
1 948 -3574 0
1 -3544 -3559 0
1 3544 -873 0
1 3544 888 0
1 3574 -948 0
1 3589 3588 0
1 -3589 888 0
1 784 -3813 0
1 784 783 0
1 784 -3768 0
1 -799 -3874 0
1 -799 3844 0
1 -799 3798 0
1 -814 3784 0
1 -814 -813 0
1 -814 3768 0
1 829 -3874 0
1 829 -3829 0
1 3844 874 0
1 -3844 -844 0
1 3844 -3859 0
1 3844 -889 0
1 3874 -784 0
1 3889 -784 0
1 -844 3844 0
1 -844 859 0
1 -859 3738 0
1 859 858 0
1 874 -3814 0
1 874 3784 0
1 -874 -3724 0
1 -874 3799 0
1 889 3754 0
1 3799 -934 0
1 -3814 814 0
1 -3829 874 0
1 -3829 -3828 0
1 904 903 0
1 -904 -3694 0
1 -904 -919 0
1 -904 -3769 0
1 919 3649 0
1 -919 -904 0
1 919 -3754 0
1 -919 -3694 0
1 -934 -933 0
1 -934 -3784 0
1 -934 -3754 0
1 949 -3754 0
1 -949 3799 0
1 3724 934 0
1 3724 3723 0
1 3724 -949 0
1 3754 -904 0
1 -3769 -3754 0
1 -3769 -919 0
1 3769 -889 0
